p cnf 27 19
-75 -1661
-98 -802
-98 -1100
-118 -1669
-219 -1899
-257 -547
-257 -1296
-479 -1489
-547 -623
-717 -2118
-874 -946
-946 -1867
-1117 -1190
-1207 -2433
-1239 -1844
-1239 -1867
-1239 -2418
-1844 -1899
-2418 -2433

